1063
1063
927
927
927
1096
1079
1021
1021
1021
1021
1024
1024
1024
934
987
983
1024
1057
1060
1062
1062
1067
1004
1043
1059
881
1067
954
919
919
964
964
977
977
1047
964
964
964
964
964
964
1002
959
959
945
934
934
914
938
938
938
938
992
903
992
988
985
985
980
832
832
832
832
932
932
932
932
932
938
938
934
934
921
921
921
921
953
906
906
906
1025
1036
976
1047
980
925
925
979
984
887
887
893
893
893
942
942
942
912
935
935
935
935
935
935
935
986
986
969
986
986
986
872
872
872
872
872
968
958
997
932
1008
1016
937
949
914
914
861
984
987
825
951
896
972
965
956
956
956
921
921
916
916
913
945
945
945
945
940
934
940
929
845
845
845
845
845
992
960
944
986
962
915
834
826
947
947
947
972
879
951
951
970
954
950
954
954
954
932
932
848
848
918
918
893
933
986
965
1010
991
991
1013
906
906
906
922
966
966
965
823
935
969
961
969
969
982
982
982
951
951
900
900
900
900
881
874
874
904
877
877
977
931
848
923
923
879
879
928
972
967
900
900
937
994
945
945
945
863
863
926
918
918
918
918
918
905
905
905
905
905
905
927
934
934
934
980
980
912
788
788
952
922
861
938
938
944
944
944
944
886
863
863
863
863
900
900
943
931
931
939
907
907
868
868
868
945
893
893
848
848
901
905
911
773
773
773
773
750
756
756
756
756
789
789
868
868
826
826
826
875
875
840
901
901
766
766
766
766
766
766
766
766
886
886
783
783
783
783
871
873
851
851
894
894
825
894
908
858
932
926
873
873
873
852
873
883
883
848
880
800
856
828
814
814
814
814
886
903
900
903
815
873
843
828
828
840
840
832
814
814
814
810
810
810
810
851
851
851
893
893
790
794
796
796
790
796
796
796
796
796
840
819
819
819
871
835
819
819
835
767
767
831
852
871
823
814
814
814
816
809
829
829
820
829
824
824
830
833
833
771
757
757
759
759
828
742
742
742
795
795
779
779
765
765
765
765
765
765
765
765
765
765
765
820
749
817
806
771
771
690
690
690
690
788
780
755
755
755
762
762
848
849
845
816
775
827
827
827
792
819
819
835
779
756
824
756
756
757
757
740
757
757
740
775
792
784
755
737
737
736
736
737
761
761
765
765
771
794
711
723
651
682
721
721
740
707
727
711
586
586
691
691
691
691
711
665
665
665
696
696
696
705
705
670
661
655
655
655
655
655
628
597
597
628
628
628
628
628
628
628
628
733
733
693
693
659
673
673
623
623
692
629
629
629
654
654
688
688
681
701
680
602
650
572
572
572
572
572
683
673
590
590
590
633
639
644
644
684
679
679
682
682
682
675
654
630
630
679
667
667
667
667
587
644
644
633
633
644
644
625
625
625
625
618
618
591
591
591
591
591
591
527
520
520
527
591
612
579
612
651
626
626
631
662
662
666
618
618
587
587
634
634
633
647
678
634
608
608
608
656
643
643
640
631
621
621
583
583
575
575
575
616
616
616
616
616
616
616
616
616
654
641
654
664
626
626
626
612
622
646
674
636
636
605
617
617
596
596
596
596
591
617
617
617
637
579
579
579
579
579
532
532
546
546
579
579
562
577
566
566
565
539
539
565
565
539
539
539
543
593
593
589
589
589
589
608
602
602
594
594
566
566
594
594
566
586
586
573
573
573
557
573
573
573
530
530
530
540
530
530
530
530
509
509
509
509
530
557
557
553
553
553
553
553
552
553
553
553
553
547
547
473
473
473
473
520
550
530
550
537
537
537
537
540
517
552
536
533
533
503
522
493
493
488
479
479
479
486
486
488
497
482
486
486
497
485
485
485
485
485
497
506
506
499
488
499
499
488
488
488
499
499
499
499
499
497
497
491
491
501
501
463
463
501
501
501
501
501
469
500
500
500
500
507
526
529
494
453
453
453
463
463
463
463
489
489
489
432
432
432
432
432
432
499
499
499
511
506
507
507
507
486
486
479
479
479
507
473
473
473
473
471
465
507
528
522
522
493
500
500
500
472
491
491
483
465
465
465
497
515
469
465
465
465
465
465
465
465
465
465
509
486
486
486
502
488
488
488
486
488
469
466
466
488
488
488
469
469
469
469
469
469
462
469
415
415
415
461
461
461
468
481
481
475
477
477
477
477
483
463
463
483
484
483
494
477
477
477
477
441
477
476
453
453
453
453
442
442
442
442
442
442
442
442
462
462
462
442
462
462
462
459
459
459
459
450
450
448
448
448
450
450
450
449
449
449
449
449
441
441
441
441
441
466
448
449
466
466
458
458
458
449
442
442
442
442
442
442
442
466
472
472
472
472
461
460
460
460
460
469
469
415
469
446
461
461
461
416
416
461
461
461
461
461
467
459
457
459
458
458
459
459
459
459
459
459
459
459
457
446
458
457
457
438
457
450
450
450
457
457
457
457
457
460
440
440
440
453
453
453
453
436
436
436
436
453
453
453
453
453
446
446
453
453
453
453
453
453
453
453
447
447
446
447
447
447
447
447
447
449
449
452
452
452
452
446
449
449
442
449
449
436
449
449
449
449
449
449
449
449
449
449
446
443
449
434
434
449
447
447
446
446
437
437
437
434
434
446
446
439
439
439
446
443
437
443
446
444
436
436
436
437
437
437
437
446
436
446
446
441
441
436
436
436
436
436
429
410
429
436
436
437
435
438
424
422
422
435
435
435
436
436
436
436
429
436
427
436
429
436
436
437
436
436
436
436
436
423
436
435
435
435
435
435
436
435
435
435
436
436
432
432
432
432
432
432
432
432
432
435
435
435
435
439
439
436
432
432
432
422
422
422
422
422
422
422
422
422
422
432
435
435
422
435
436
429
429
422
429
429
429
429
436
436
436
436
429
429
430
429
429
435
435
435
435
435
435
436
436
436
436
422
422
422
422
422
422
422
422
422
422
422
422
422
422
422
430
435
435
435
435
422
422
422
422
422
435
435
435
432
432
436
422
422
422
422
422
422
422
422
435
433
433
422
433
429
435
429
429
435
429
435
435
435
435
435
435
435
435
435
435
435
435
436
435
435
435
436
436
436
436
435
435
435
435
435
435
436
429
435
435
435
435
435
435
435
435
435
436
436
435
435
435
435
435
435
435
435
435
435
435
435
429
429
435
429
429
429
428
428
428
428
429
435
435
435
435
435
435
435
435
435
435
435
435
436
436
436
435
435
435
435
435
435
435
435
435
435
435
435
435
435
435
435
435
435
435
435
435
435
435
435
435
435
435
435
435
435
435
435
435
435
435
435
435
435
435
435
435
435
436
436
436
436
436
436
436
436
436
436
436
445
445
436
436
445
445
445
445
445
445
445
445
445
445
445
445
445
445
445
445
445
436
436
435
435
435
435
435
445
445
445
445
445
445
445
445
445
445
445
445
445
445
446
446
446
446
445
446
446
446
452
448
448
452
452
452
452
452
452
452
452
452
452
446
452
452
436
452
452
452
452
452
452
452
436
436
436
436
436
436
436
435
435
435
435
435
436
436
436
436
441
441
436
436
436
436
436
436
435
435
435
435
435
435
435
435
436
435
435
436
436
435
435
435
435
435
435
435
435
435
435
435
435
435
435
435
435
435
435
435
435
435
435
435
435
435
435
435
435
435
435
435
435
435
435
435
435
435
435
435
435
435
435
435
435
435
435
435
435
435
435
435
435
435
435
435
435
435
435
435
435
435
435
435
435
435
435
435
435
435
435
435
435
435
435
435
435
435
435
435
435
435
435
435
435
435
435
435
435
435
435
435
435
435
435
435
435
435
435
435
435
435
435
435
435
435
435
435
428
435
435
435
435
435
435
435
435
435
435
435
435
435
435
435
435
435
435
435
435
435
435
435
435
435
435
435
435
435
435
435
435
435
435
435
435
435
435
435
435
435
435
435
435
435
435
435
435
435
435
435
435
435
435
435
435
435
435
435
435
435
435
435
435
435
435
435
435
435
435
435
435
435
435
435
435
435
435
435
435
435
435
435
435
435
435
435
435
435
435
435
435
435
435
435
435
435
435
435
435
435
435
435
435
435
435
435
435
435
435
435
435
435
435
435
435
435
435
435
435
435
435
435
435
435
435
435
435
435
435
435
435
435
435
435
435
435
435
435
435
435
435
435
435
435
435
435
435
435
435
430
430
430
430
430
435
435
435
435
435
435
435
435
435
435
435
435
435
435
435
435
435
435
435
435
435
435
435
435
435
435
435
435
435
435
435
435
435
435
435
435
435
435
435
435
435
435
435
435
435
435
435
435
435
435
435
435
435
435
435
435
429
435
435
435
435
435
435
435
435
435
435
435
435
435
435
435
435
435
435
435
435
435
435
435
435
435
435
435
435
428
435
435
435
435
435
435
435
435
429
429
429
429
429
428
428
428
428
429
429
429
428
428
428
428
429
429
429
429
429
428
428
428
428
429
429
429
429
435
435
435
435
429
429
429
429
429
429
429
430
430
435
424
424
424
424
424
424
424
424
424
428
424
428
428
424
428
424
424
424
424
424
424
424
428
428
428
428
428
428
428
428
428
428
428
428
428
428
428
429
429
